p cnf 118 389
3 -1 0
3 -2 0
1 2 -3 0
-6 -4 0
-6 -5 0
4 5 6 0
-8 -4 -9 0
8 4 -9 0
-8 4 9 0
8 -4 9 0
-7 -9 -10 0
7 9 -10 0
-7 9 10 0
7 -9 10 0
11 6 0
11 10 0
-6 -10 -11 0
-12 -6 0
-12 11 0
6 -11 12 0
3 -12 -13 0
-3 12 -13 0
3 12 13 0
-3 -12 13 0
-14 -15 -16 0
14 15 -16 0
-14 15 16 0
14 -15 16 0
20 -4 0
20 19 0
4 -19 -20 0
21 14 0
21 20 0
-14 -20 -21 0
-22 -18 0
-22 21 0
18 -21 22 0
-23 17 0
-23 22 0
-17 -22 23 0
-9 23 -24 0
9 -23 -24 0
-9 -23 24 0
9 23 24 0
-26 -24 0
-26 25 0
24 -25 26 0
27 16 0
27 26 0
-16 -26 -27 0
28 7 0
28 4 0
-7 -4 -28 0
29 -22 0
29 -28 0
22 28 -29 0
-30 27 0
-30 29 0
-27 -29 30 0
13 30 -31 0
-13 -30 -31 0
13 -30 31 0
-13 30 31 0
-2 -1 -32 0
2 1 -32 0
-2 1 32 0
2 -1 32 0
33 -22 0
33 32 0
22 -32 -33 0
-34 33 0
-34 15 0
-33 -15 34 0
-35 -8 0
-35 -9 0
8 9 35 0
35 26 -36 0
-35 -26 -36 0
35 -26 36 0
-35 26 36 0
34 36 -37 0
-34 -36 -37 0
34 -36 37 0
-34 36 37 0
31 37 -38 0
-31 -37 -38 0
31 -37 38 0
-31 37 38 0
39 8 0
39 19 0
-8 -19 -39 0
40 3 0
40 -16 0
-3 16 -40 0
-42 33 0
-42 -41 0
-33 41 42 0
-43 19 0
-43 -19 0
44 42 0
44 43 0
-42 -43 -44 0
-45 40 0
-45 -44 0
-40 44 45 0
39 -45 -46 0
-39 45 -46 0
39 45 46 0
-39 -45 46 0
-15 -11 -47 0
15 11 -47 0
-15 11 47 0
15 -11 47 0
-47 -16 -48 0
47 16 -48 0
-47 16 48 0
47 -16 48 0
48 17 -49 0
-48 -17 -49 0
48 -17 49 0
-48 17 49 0
9 2 -50 0
-9 -2 -50 0
9 -2 50 0
-9 2 50 0
-49 -50 -51 0
49 50 -51 0
-49 50 51 0
49 -50 51 0
52 -17 0
52 19 0
17 -19 -52 0
52 -25 -53 0
-52 25 -53 0
52 25 53 0
-52 -25 53 0
54 17 0
54 41 0
-17 -41 -54 0
-55 -54 0
-55 -41 0
54 41 55 0
-56 -19 0
-56 4 0
19 -4 56 0
-57 -55 0
-57 -56 0
55 56 57 0
-58 -57 0
-58 8 0
57 -8 58 0
25 58 -59 0
-25 -58 -59 0
25 -58 59 0
-25 58 59 0
-60 53 0
-60 59 0
-53 -59 60 0
-57 -20 -61 0
57 20 -61 0
-57 20 61 0
57 -20 61 0
62 -60 0
62 -61 0
60 61 -62 0
63 51 0
63 62 0
-51 -62 -63 0
-64 -46 0
-64 -63 0
46 63 64 0
65 -38 0
65 -64 0
38 64 -65 0
-67 54 0
-67 -66 0
-54 66 67 0
-68 26 0
-68 56 0
-26 -56 68 0
-67 -68 -69 0
67 68 -69 0
-67 68 69 0
67 -68 69 0
-70 32 0
-70 -35 0
-32 35 70 0
-71 24 0
-71 -70 0
-24 70 71 0
-2 19 -72 0
2 -19 -72 0
-2 -19 72 0
2 19 72 0
73 16 0
73 32 0
-16 -32 -73 0
-74 72 0
-74 73 0
-72 -73 74 0
-75 71 0
-75 74 0
-71 -74 75 0
-32 9 -76 0
32 -9 -76 0
-32 -9 76 0
32 9 76 0
75 76 -77 0
-75 -76 -77 0
75 -76 77 0
-75 76 77 0
78 -69 0
78 -77 0
69 77 -78 0
3 21 -79 0
-3 -21 -79 0
3 -21 79 0
-3 21 79 0
-80 -25 0
-80 -17 0
25 17 80 0
81 18 0
81 80 0
-18 -80 -81 0
-82 -79 0
-82 81 0
79 -81 82 0
83 -78 0
83 82 0
78 -82 -83 0
84 -55 0
84 -4 0
55 4 -84 0
-83 -84 -85 0
83 84 -85 0
-83 84 85 0
83 -84 85 0
87 -86 0
87 -58 0
86 58 -87 0
88 -22 0
88 56 0
22 -56 -88 0
89 -87 0
89 88 0
87 -88 -89 0
90 -85 0
90 89 0
85 -89 -90 0
-91 65 0
-91 -90 0
-65 90 91 0
92 26 0
92 -28 0
-26 28 -92 0
-93 -91 0
-93 92 0
91 -92 93 0
-95 94 0
-95 17 0
-94 -17 95 0
-96 19 0
-96 -10 0
-19 10 96 0
-20 96 -97 0
20 -96 -97 0
-20 -96 97 0
20 96 97 0
98 95 0
98 -97 0
-95 97 -98 0
99 -56 0
99 9 0
56 -9 -99 0
100 -28 0
100 34 0
28 -34 -100 0
101 -33 0
101 36 0
33 -36 -101 0
-102 -100 0
-102 101 0
100 -101 102 0
66 -5 -103 0
-66 5 -103 0
66 5 103 0
-66 -5 103 0
-104 102 0
-104 103 0
-102 -103 104 0
105 12 0
105 18 0
-12 -18 -105 0
106 -21 0
106 -56 0
21 56 -106 0
107 -25 0
107 -23 0
25 23 -107 0
-106 107 -108 0
106 -107 -108 0
-106 -107 108 0
106 107 108 0
105 -108 -109 0
-105 108 -109 0
105 108 109 0
-105 -108 109 0
110 -41 0
110 -19 0
41 19 -110 0
110 2 -111 0
-110 -2 -111 0
110 -2 111 0
-110 2 111 0
112 109 0
112 111 0
-109 -111 -112 0
-15 -17 -113 0
15 17 -113 0
-15 17 113 0
15 -17 113 0
-114 -112 0
-114 -113 0
112 113 114 0
104 -114 -115 0
-104 114 -115 0
104 114 115 0
-104 -114 115 0
116 -99 0
116 -115 0
99 115 -116 0
-117 -98 0
-117 -116 0
98 116 117 0
118 93 0
118 117 0
-93 -117 -118 0
-43 5 -96 -37 -18 23 0
-43 -87 -53 -7 -59 63 0
-16 -46 44 -71 0
91 108 -31 0
48 30 -50 -13 0
-52 77 53 -111 -99 91 0
26 103 -60 -105 22 0
68 58 -91 -39 70 -5 0
33 -100 102 93 60 0
-6 -100 67 -78 -41 13 0
-109 7 -31 -102 78 0
-8 35 56 -118 41 76 0
-34 -17 -111 -116 58 0
-77 92 -2 -113 16 -91 0
-32 -46 -25 -79 101 42 0
37 83 -80 100 -91 -86 0
-4 -98 -62 -83 39 0
-2 -108 0
26 -114 -85 0
-99 -92 -41 14 -16 31 0
79 20 15 0
56 102 78 -33 10 -38 0
-63 51 -23 0
-25 -21 89 -97 51 -53 0
-87 -46 -49 12 0
-24 -57 6 0
34 73 0
21 33 110 -53 -73 27 0
21 -46 -1 13 84 50 0
18 -69 0
-12 90 0
-37 82 0
47 71 -1 26 -113 0
114 37 48 0
13 -16 71 21 -15 0
-72 -90 0
88 -4 -27 107 0
58 48 -64 0
88 23 0
15 42 -98 82 0
-112 -97 0
-52 89 -32 -74 0
93 -59 72 -21 -46 79 0
80 11 92 117 50 -52 0
-73 76 -114 0
72 -85 105 43 -36 -107 0
-38 115 -103 -13 -109 0
39 37 62 36 0
-65 76 111 -8 -59 72 0
-47 94 103 0
-15 59 -35 0
118 0
